<number of tasks>
20

<cycle time>
1000

<order strength>
0,184


<task times>
1 88
2 32
3 142
4 107
5 260
6 110
7 118
8 121
9 152
10 128
11 27
12 171
13 72
14 121
15 60
16 204
17 195
18 160
19 321
20 196

<precedence relations>
1,5
2,6
2,9
3,8
3,10
4,7
5,12
6,11
8,14
10,13
11,15
12,16
14,17
15,18
16,19
16,20

<end>
